(set-logic QF_UF)
(declare-fun A0 () Bool)
(declare-fun A1 () Bool)
(declare-fun A2 () Bool)
(declare-fun A3 () Bool)
(declare-fun A4 () Bool)
(declare-fun A5 () Bool)
(declare-fun A6 () Bool)
(declare-fun A7 () Bool)
(declare-fun A8 () Bool)
(declare-fun A9 () Bool)
(declare-fun A10 () Bool)
(declare-fun A11 () Bool)
(declare-fun A12 () Bool)
(declare-fun A13 () Bool)
(declare-fun A14 () Bool)
(declare-fun A15 () Bool)
(declare-fun A16 () Bool)
(declare-fun A17 () Bool)
(declare-fun A18 () Bool)
(declare-fun A19 () Bool)
(declare-fun A20 () Bool)
(declare-fun A21 () Bool)
(declare-fun A22 () Bool)
(declare-fun A23 () Bool)
(declare-fun A24 () Bool)
(assert (let ((.def_0 (not A15))) (let ((.def_1 (or A21 .def_0))) (let ((.def_2 (not A17))) (let ((.def_3 (or .def_2 A10))) (let ((.def_4 (or .def_3 .def_1))) (let ((.def_5 (not .def_4))) (let ((.def_6 (not A1))) (let ((.def_7 (or .def_6 A9))) (let ((.def_8 (not .def_7))) (let ((.def_9 (not A20))) (let ((.def_10 (and A2 .def_9))) (let ((.def_11 (not .def_10))) (let ((.def_12 (or .def_11 .def_8))) (let ((.def_13 (not .def_12))) (let ((.def_14 (and .def_13 .def_5))) (let ((.def_15 (not A18))) (let ((.def_16 (and A18 .def_15))) (let ((.def_17 (not .def_16))) (let ((.def_18 (not A12))) (let ((.def_19 (and .def_9 .def_18))) (let ((.def_20 (not .def_19))) (let ((.def_21 (= .def_20 .def_17))) (let ((.def_22 (not A22))) (let ((.def_23 (or A15 .def_22))) (let ((.def_24 (or A24 A16))) (let ((.def_25 (not .def_24))) (let ((.def_26 (or .def_25 .def_23))) (let ((.def_27 (not .def_26))) (let ((.def_28 (and .def_27 .def_21))) (let ((.def_29 (or .def_28 .def_14))) (let ((.def_30 (not .def_29))) (let ((.def_31 (or A0 .def_0))) (let ((.def_32 (not A10))) (let ((.def_33 (not A13))) (let ((.def_34 (or .def_33 .def_32))) (let ((.def_35 (not .def_34))) (let ((.def_36 (or .def_35 .def_31))) (let ((.def_37 (not .def_36))) (let ((.def_38 (and A24 A4))) (let ((.def_39 (not .def_38))) (let ((.def_40 (and A20 A4))) (let ((.def_41 (or .def_40 .def_39))) (let ((.def_42 (not .def_41))) (let ((.def_43 (or .def_42 .def_37))) (let ((.def_44 (and A3 A5))) (let ((.def_45 (or A8 .def_33))) (let ((.def_46 (and .def_45 .def_44))) (let ((.def_47 (not .def_46))) (let ((.def_48 (not A2))) (let ((.def_49 (and A12 .def_48))) (let ((.def_50 (not A23))) (let ((.def_51 (and A19 .def_50))) (let ((.def_52 (not .def_51))) (let ((.def_53 (or .def_52 .def_49))) (let ((.def_54 (and .def_53 .def_47))) (let ((.def_55 (or .def_54 .def_43))) (let ((.def_56 (or .def_55 .def_30))) (let ((.def_57 (or A18 A17))) (let ((.def_58 (not .def_57))) (let ((.def_59 (and A7 A17))) (let ((.def_60 (and .def_59 .def_58))) (let ((.def_61 (not .def_60))) (let ((.def_62 (not A14))) (let ((.def_63 (or .def_62 A5))) (let ((.def_64 (not .def_63))) (let ((.def_65 (and A2 A24))) (let ((.def_66 (and .def_65 .def_64))) (let ((.def_67 (not .def_66))) (let ((.def_68 (and .def_67 .def_61))) (let ((.def_69 (not .def_68))) (let ((.def_70 (not A7))) (let ((.def_71 (or .def_70 .def_0))) (let ((.def_72 (not .def_71))) (let ((.def_73 (not A16))) (let ((.def_74 (and .def_0 .def_73))) (let ((.def_75 (and .def_74 .def_72))) (let ((.def_76 (not .def_75))) (let ((.def_77 (and A7 A23))) (let ((.def_78 (not .def_77))) (let ((.def_79 (or A21 A23))) (let ((.def_80 (not .def_79))) (let ((.def_81 (and .def_80 .def_78))) (let ((.def_82 (= .def_81 .def_76))) (let ((.def_83 (not .def_82))) (let ((.def_84 (= .def_83 .def_69))) (let ((.def_85 (not .def_84))) (let ((.def_86 (not A3))) (let ((.def_87 (not A9))) (let ((.def_88 (and .def_87 .def_86))) (let ((.def_89 (not .def_88))) (let ((.def_90 (or A19 .def_33))) (let ((.def_91 (and .def_90 .def_89))) (let ((.def_92 (and .def_73 A16))) (let ((.def_93 (and .def_32 A0))) (let ((.def_94 (not .def_93))) (let ((.def_95 (or .def_94 .def_92))) (let ((.def_96 (or .def_95 .def_91))) (let ((.def_97 (and .def_9 A12))) (let ((.def_98 (not .def_97))) (let ((.def_99 (and A16 A3))) (let ((.def_100 (or .def_99 .def_98))) (let ((.def_101 (not .def_100))) (let ((.def_102 (and A0 .def_9))) (let ((.def_103 (not .def_102))) (let ((.def_104 (or .def_50 .def_18))) (let ((.def_105 (= .def_104 .def_103))) (let ((.def_106 (not .def_105))) (let ((.def_107 (or .def_106 .def_101))) (let ((.def_108 (and .def_107 .def_96))) (let ((.def_109 (not .def_108))) (let ((.def_110 (and .def_109 .def_85))) (let ((.def_111 (not .def_110))) (let ((.def_112 (and .def_111 .def_56))) (let ((.def_113 (not .def_112))) (let ((.def_114 (and A21 A6))) (let ((.def_115 (not .def_114))) (let ((.def_116 (or A17 A2))) (let ((.def_117 (not .def_116))) (let ((.def_118 (or .def_117 .def_115))) (let ((.def_119 (not .def_118))) (let ((.def_120 (and .def_2 A24))) (let ((.def_121 (not .def_120))) (let ((.def_122 (or A0 A9))) (let ((.def_123 (and .def_122 .def_121))) (let ((.def_124 (or .def_123 .def_119))) (let ((.def_125 (not .def_124))) (let ((.def_126 (or A14 A4))) (let ((.def_127 (not .def_126))) (let ((.def_128 (and A7 A1))) (let ((.def_129 (or .def_128 .def_127))) (let ((.def_130 (and A5 .def_15))) (let ((.def_131 (not A24))) (let ((.def_132 (or A4 .def_131))) (let ((.def_133 (and .def_132 .def_130))) (let ((.def_134 (not .def_133))) (let ((.def_135 (and .def_134 .def_129))) (let ((.def_136 (and .def_135 .def_125))) (let ((.def_137 (not .def_136))) (let ((.def_138 (and A20 A12))) (let ((.def_139 (not .def_138))) (let ((.def_140 (or A18 A1))) (let ((.def_141 (and .def_140 .def_139))) (let ((.def_142 (not .def_141))) (let ((.def_143 (not A5))) (let ((.def_144 (or A9 .def_143))) (let ((.def_145 (or .def_143 .def_86))) (let ((.def_146 (or .def_145 .def_144))) (let ((.def_147 (not .def_146))) (let ((.def_148 (or .def_147 .def_142))) (let ((.def_149 (not A19))) (let ((.def_150 (and .def_22 .def_149))) (let ((.def_151 (and A8 A5))) (let ((.def_152 (and .def_151 .def_150))) (let ((.def_153 (not .def_152))) (let ((.def_154 (or A4 .def_70))) (let ((.def_155 (not .def_154))) (let ((.def_156 (and A16 A8))) (let ((.def_157 (not .def_156))) (let ((.def_158 (and .def_157 .def_155))) (let ((.def_159 (and .def_158 .def_153))) (let ((.def_160 (not .def_159))) (let ((.def_161 (and .def_160 .def_148))) (let ((.def_162 (not .def_161))) (let ((.def_163 (or .def_162 .def_137))) (let ((.def_164 (or .def_2 .def_48))) (let ((.def_165 (not .def_164))) (let ((.def_166 (or A14 A12))) (let ((.def_167 (not .def_166))) (let ((.def_168 (or .def_167 .def_165))) (let ((.def_169 (not .def_168))) (let ((.def_170 (or .def_87 A6))) (let ((.def_171 (not A21))) (let ((.def_172 (not A4))) (let ((.def_173 (or .def_172 .def_171))) (let ((.def_174 (not .def_173))) (let ((.def_175 (and .def_174 .def_170))) (let ((.def_176 (not .def_175))) (let ((.def_177 (and .def_176 .def_169))) (let ((.def_178 (not A6))) (let ((.def_179 (and .def_178 A17))) (let ((.def_180 (and .def_86 A24))) (let ((.def_181 (not .def_180))) (let ((.def_182 (and .def_181 .def_179))) (let ((.def_183 (or .def_86 .def_171))) (let ((.def_184 (and A11 A22))) (let ((.def_185 (not .def_184))) (let ((.def_186 (or .def_185 .def_183))) (let ((.def_187 (not .def_186))) (let ((.def_188 (or .def_187 .def_182))) (let ((.def_189 (or .def_188 .def_177))) (let ((.def_190 (or A13 A24))) (let ((.def_191 (not .def_190))) (let ((.def_192 (not A0))) (let ((.def_193 (and .def_192 .def_172))) (let ((.def_194 (and .def_193 .def_191))) (let ((.def_195 (and .def_86 A7))) (let ((.def_196 (not .def_195))) (let ((.def_197 (or A10 .def_171))) (let ((.def_198 (or .def_197 .def_196))) (let ((.def_199 (or .def_198 .def_194))) (let ((.def_200 (and A14 A19))) (let ((.def_201 (not .def_200))) (let ((.def_202 (or A18 A12))) (let ((.def_203 (and .def_202 .def_201))) (let ((.def_204 (not .def_203))) (let ((.def_205 (or A14 .def_172))) (let ((.def_206 (not .def_205))) (let ((.def_207 (not A8))) (let ((.def_208 (or A3 .def_207))) (let ((.def_209 (and .def_208 .def_206))) (let ((.def_210 (and .def_209 .def_204))) (let ((.def_211 (or .def_210 .def_199))) (let ((.def_212 (not .def_211))) (let ((.def_213 (and .def_212 .def_189))) (let ((.def_214 (and .def_213 .def_163))) (let ((.def_215 (not .def_214))) (let ((.def_216 (or .def_215 .def_113))) (let ((.def_217 (not .def_216))) (let ((.def_218 (and A1 .def_172))) (let ((.def_219 (or .def_0 A21))) (let ((.def_220 (and .def_219 .def_218))) (let ((.def_221 (= A8 .def_9))) (let ((.def_222 (not .def_221))) (let ((.def_223 (or A2 A15))) (let ((.def_224 (not .def_223))) (let ((.def_225 (and .def_224 .def_222))) (let ((.def_226 (and .def_225 .def_220))) (let ((.def_227 (not .def_226))) (let ((.def_228 (and .def_86 .def_48))) (let ((.def_229 (or .def_131 A6))) (let ((.def_230 (not .def_229))) (let ((.def_231 (or .def_230 .def_228))) (let ((.def_232 (not .def_231))) (let ((.def_233 (or A19 A15))) (let ((.def_234 (and A21 .def_73))) (let ((.def_235 (or .def_234 .def_233))) (let ((.def_236 (not .def_235))) (let ((.def_237 (or .def_236 .def_232))) (let ((.def_238 (and .def_237 .def_227))) (let ((.def_239 (not .def_238))) (let ((.def_240 (and A2 .def_2))) (let ((.def_241 (or A5 A4))) (let ((.def_242 (or .def_241 .def_240))) (let ((.def_243 (or A4 A22))) (let ((.def_244 (= .def_143 A3))) (let ((.def_245 (and .def_244 .def_243))) (let ((.def_246 (and .def_245 .def_242))) (let ((.def_247 (= .def_70 A8))) (let ((.def_248 (and A1 A22))) (let ((.def_249 (or .def_248 .def_247))) (let ((.def_250 (or .def_131 .def_178))) (let ((.def_251 (and A4 .def_50))) (let ((.def_252 (and .def_251 .def_250))) (let ((.def_253 (= .def_252 .def_249))) (let ((.def_254 (not .def_253))) (let ((.def_255 (and .def_254 .def_246))) (let ((.def_256 (or .def_255 .def_239))) (let ((.def_257 (not .def_256))) (let ((.def_258 (and .def_172 .def_18))) (let ((.def_259 (not .def_258))) (let ((.def_260 (or .def_86 A4))) (let ((.def_261 (not .def_260))) (let ((.def_262 (and .def_261 .def_259))) (let ((.def_263 (or .def_33 A7))) (let ((.def_264 (not .def_263))) (let ((.def_265 (and .def_0 .def_62))) (let ((.def_266 (and .def_265 .def_264))) (let ((.def_267 (or .def_266 .def_262))) (let ((.def_268 (or .def_22 A23))) (let ((.def_269 (not .def_268))) (let ((.def_270 (or .def_32 .def_73))) (let ((.def_271 (or .def_270 .def_269))) (let ((.def_272 (not .def_271))) (let ((.def_273 (and .def_48 A15))) (let ((.def_274 (not .def_273))) (let ((.def_275 (and A16 .def_172))) (let ((.def_276 (and .def_275 .def_274))) (let ((.def_277 (and .def_276 .def_272))) (let ((.def_278 (not .def_277))) (let ((.def_279 (and .def_278 .def_267))) (let ((.def_280 (not .def_279))) (let ((.def_281 (or A21 .def_131))) (let ((.def_282 (and .def_86 .def_22))) (let ((.def_283 (and .def_282 .def_281))) (let ((.def_284 (not .def_283))) (let ((.def_285 (or A10 A13))) (let ((.def_286 (not .def_285))) (let ((.def_287 (or A5 .def_207))) (let ((.def_288 (or .def_287 .def_286))) (let ((.def_289 (not .def_288))) (let ((.def_290 (and .def_289 .def_284))) (let ((.def_291 (or A18 .def_9))) (let ((.def_292 (or .def_143 A8))) (let ((.def_293 (not .def_292))) (let ((.def_294 (and .def_293 .def_291))) (let ((.def_295 (not .def_294))) (let ((.def_296 (or A24 A8))) (let ((.def_297 (and A10 .def_171))) (let ((.def_298 (not .def_297))) (let ((.def_299 (or .def_298 .def_296))) (let ((.def_300 (or .def_299 .def_295))) (let ((.def_301 (not .def_300))) (let ((.def_302 (or .def_301 .def_290))) (let ((.def_303 (not .def_302))) (let ((.def_304 (and .def_303 .def_280))) (let ((.def_305 (not .def_304))) (let ((.def_306 (or .def_305 .def_257))) (let ((.def_307 (not .def_306))) (let ((.def_308 (or .def_18 A1))) (let ((.def_309 (not .def_308))) (let ((.def_310 (and .def_131 .def_172))) (let ((.def_311 (not .def_310))) (let ((.def_312 (and .def_311 .def_309))) (let ((.def_313 (not A11))) (let ((.def_314 (and A12 .def_313))) (let ((.def_315 (not .def_314))) (let ((.def_316 (and A0 .def_86))) (let ((.def_317 (not .def_316))) (let ((.def_318 (or .def_317 .def_315))) (let ((.def_319 (not .def_318))) (let ((.def_320 (and .def_319 .def_312))) (let ((.def_321 (and A20 A0))) (let ((.def_322 (not .def_321))) (let ((.def_323 (= A3 .def_149))) (let ((.def_324 (or .def_323 .def_322))) (let ((.def_325 (and .def_32 .def_192))) (let ((.def_326 (not .def_325))) (let ((.def_327 (or A13 A12))) (let ((.def_328 (or .def_327 .def_326))) (let ((.def_329 (not .def_328))) (let ((.def_330 (and .def_329 .def_324))) (let ((.def_331 (or .def_330 .def_320))) (let ((.def_332 (not .def_331))) (let ((.def_333 (and .def_86 .def_192))) (let ((.def_334 (not .def_333))) (let ((.def_335 (or A12 A24))) (let ((.def_336 (not .def_335))) (let ((.def_337 (and .def_336 .def_334))) (let ((.def_338 (and .def_33 .def_73))) (let ((.def_339 (or .def_73 .def_18))) (let ((.def_340 (= .def_339 .def_338))) (let ((.def_341 (= .def_340 .def_337))) (let ((.def_342 (not .def_341))) (let ((.def_343 (or A17 .def_172))) (let ((.def_344 (and .def_48 A8))) (let ((.def_345 (or .def_344 .def_343))) (let ((.def_346 (= .def_172 A19))) (let ((.def_347 (and .def_143 .def_73))) (let ((.def_348 (not .def_347))) (let ((.def_349 (or .def_348 .def_346))) (let ((.def_350 (not .def_349))) (let ((.def_351 (and .def_350 .def_345))) (let ((.def_352 (not .def_351))) (let ((.def_353 (or .def_352 .def_342))) (let ((.def_354 (not .def_353))) (let ((.def_355 (or .def_354 .def_332))) (let ((.def_356 (not .def_355))) (let ((.def_357 (and A20 .def_131))) (let ((.def_358 (or A1 .def_149))) (let ((.def_359 (and .def_358 .def_357))) (let ((.def_360 (= .def_86 .def_149))) (let ((.def_361 (or A23 .def_87))) (let ((.def_362 (not .def_361))) (let ((.def_363 (and .def_362 .def_360))) (let ((.def_364 (or .def_363 .def_359))) (let ((.def_365 (and .def_48 .def_143))) (let ((.def_366 (or .def_70 .def_143))) (let ((.def_367 (not .def_366))) (let ((.def_368 (or .def_367 .def_365))) (let ((.def_369 (and .def_143 .def_9))) (let ((.def_370 (or A13 A14))) (let ((.def_371 (not .def_370))) (let ((.def_372 (and .def_371 .def_369))) (let ((.def_373 (not .def_372))) (let ((.def_374 (or .def_373 .def_368))) (let ((.def_375 (or .def_374 .def_364))) (let ((.def_376 (and .def_18 .def_73))) (let ((.def_377 (not .def_376))) (let ((.def_378 (or .def_18 A21))) (let ((.def_379 (not .def_378))) (let ((.def_380 (and .def_379 .def_377))) (let ((.def_381 (not .def_380))) (let ((.def_382 (= A24 A3))) (let ((.def_383 (not .def_382))) (let ((.def_384 (not .def_144))) (let ((.def_385 (and .def_384 .def_383))) (let ((.def_386 (not .def_385))) (let ((.def_387 (= .def_386 .def_381))) (let ((.def_388 (not .def_387))) (let ((.def_389 (or .def_15 .def_15))) (let ((.def_390 (and A21 A17))) (let ((.def_391 (and .def_390 .def_389))) (let ((.def_392 (not .def_391))) (let ((.def_393 (= A22 .def_171))) (let ((.def_394 (= .def_192 A8))) (let ((.def_395 (or .def_394 .def_393))) (let ((.def_396 (or .def_395 .def_392))) (let ((.def_397 (not .def_396))) (let ((.def_398 (or .def_397 .def_388))) (let ((.def_399 (not .def_398))) (let ((.def_400 (and .def_399 .def_375))) (let ((.def_401 (not .def_400))) (let ((.def_402 (and .def_401 .def_356))) (let ((.def_403 (not .def_402))) (let ((.def_404 (or .def_403 .def_307))) (let ((.def_405 (not .def_404))) (let ((.def_406 (and .def_405 .def_217))) .def_406))))))))))))))))))))))))))))))))))))))))))))))))))))))))))))))))))))))))))))))))))))))))))))))))))))))))))))))))))))))))))))))))))))))))))))))))))))))))))))))))))))))))))))))))))))))))))))))))))))))))))))))))))))))))))))))))))))))))))))))))))))))))))))))))))))))))))))))))))))))))))))))))))))))))))))))))))))))))))))))))))))))))))))))))))))))))))))))))))))))))))))))))))))))))))))))))))))))))))))))))))))))))
(check-sat)
